8
0, 411, 278, 86, 540, 907, 781, 566
411, 0, 437, 477, 441, 503, 578, 155
278, 437, 0, 247, 748, 843, 959, 570
86, 477, 247, 0, 626, 963, 867, 632
540, 441, 748, 626, 0, 802, 253, 492
907, 503, 843, 963, 802, 0, 779, 357
781, 578, 959, 867, 253, 779, 0, 559
566, 155, 570, 632, 492, 357, 559, 0
